HFSDDW
20	6	2
0	32	1	47
0	21	1	45
0	85	1	35
0	40	1	23
0	96	1	39
0	55	1	97
0	7	1	76
0	89	1	10
0	18	1	23
0	33	1	74
0	55	1	14
0	12	1	7
0	84	1	91
0	93	1	82
0	6	1	20
0	13	1	84
0	21	1	32
0	7	1	17
0	75	1	64
0	13	1	31
LBCmax: 311
RELDUE
-1	117	4	6
-1	106	2	7
-1	139	3	7
-1	142	7	7
-1	132	7	7
-1	155	4	5
-1	139	1	1
-1	95	4	4
-1	115	4	3
-1	145	4	8
-1	108	2	8
-1	149	5	3
-1	121	9	3
-1	138	4	5
-1	100	2	8
-1	104	8	6
-1	115	1	2
-1	102	9	8
-1	130	1	9
-1	152	5	9
DDW
111	123
85	127
129	149
124	160
119	145
132	178
117	161
86	104
106	124
122	168
91	125
148	150
103	139
117	159
84	116
93	115
112	118
83	121
108	152
150	154
